c colouring generated by benchmark framework
p edge 360 682
v 1 0
v 2 1
v 3 0
v 4 1
v 5 0
v 6 1
v 7 0
v 8 1
v 9 0
v 10 1
v 11 0
v 12 1
v 13 0
v 14 1
v 15 0
v 16 1
v 17 0
v 18 1
v 19 0
v 20 1
v 21 2
v 22 0
v 23 1
v 24 0
v 25 1
v 26 0
v 27 1
v 28 0
v 29 1
v 30 0
v 31 1
v 32 0
v 33 1
v 34 0
v 35 1
v 36 0
v 37 1
v 38 0
v 39 1
v 40 0
v 41 1
v 42 3
v 43 2
v 44 3
v 45 2
v 46 4
v 47 3
v 48 2
v 49 3
v 50 2
v 51 3
v 52 2
v 53 0
v 54 1
v 55 0
v 56 1
v 57 0
v 58 1
v 59 0
v 60 1
v 61 0
v 62 1
v 63 0
v 64 1
v 65 0
v 66 1
v 67 0
v 68 1
v 69 0
v 70 1
v 71 0
v 72 1
v 73 2
v 74 0
v 75 1
v 76 0
v 77 1
v 78 0
v 79 1
v 80 2
v 81 1
v 82 0
v 83 1
v 84 0
v 85 1
v 86 0
v 87 1
v 88 0
v 89 1
v 90 0
v 91 1
v 92 0
v 93 1
v 94 2
v 95 0
v 96 1
v 97 0
v 98 1
v 99 2
v 100 0
v 101 0
v 102 1
v 103 0
v 104 1
v 105 0
v 106 1
v 107 0
v 108 1
v 109 0
v 110 1
v 111 0
v 112 1
v 113 0
v 114 1
v 115 3
v 116 2
v 117 3
v 118 2
v 119 0
v 120 1
v 121 1
v 122 0
v 123 1
v 124 0
v 125 1
v 126 0
v 127 1
v 128 0
v 129 1
v 130 0
v 131 1
v 132 0
v 133 1
v 134 0
v 135 1
v 136 0
v 137 1
v 138 0
v 139 1
v 140 0
v 141 0
v 142 1
v 143 0
v 144 1
v 145 0
v 146 2
v 147 3
v 148 2
v 149 3
v 150 2
v 151 3
v 152 2
v 153 3
v 154 2
v 155 0
v 156 1
v 157 0
v 158 1
v 159 0
v 160 1
v 161 1
v 162 0
v 163 1
v 164 0
v 165 2
v 166 1
v 167 0
v 168 1
v 169 0
v 170 1
v 171 0
v 172 1
v 173 0
v 174 1
v 175 2
v 176 0
v 177 1
v 178 0
v 179 1
v 180 0
v 181 0
v 182 1
v 183 0
v 184 2
v 185 1
v 186 0
v 187 1
v 188 0
v 189 1
v 190 0
v 191 1
v 192 0
v 193 1
v 194 2
v 195 0
v 196 1
v 197 0
v 198 1
v 199 0
v 200 1
v 201 1
v 202 0
v 203 1
v 204 0
v 205 2
v 206 1
v 207 0
v 208 1
v 209 0
v 210 1
v 211 0
v 212 1
v 213 0
v 214 1
v 215 2
v 216 0
v 217 1
v 218 0
v 219 1
v 220 0
v 221 0
v 222 1
v 223 0
v 224 1
v 225 3
v 226 0
v 227 1
v 228 0
v 229 1
v 230 0
v 231 1
v 232 0
v 233 1
v 234 0
v 235 3
v 236 1
v 237 0
v 238 1
v 239 0
v 240 1
v 241 1
v 242 0
v 243 1
v 244 2
v 245 0
v 246 1
v 247 0
v 248 1
v 249 0
v 250 1
v 251 0
v 252 1
v 253 2
v 254 3
v 255 1
v 256 0
v 257 1
v 258 0
v 259 1
v 260 0
v 261 0
v 262 1
v 263 3
v 264 0
v 265 1
v 266 0
v 267 1
v 268 0
v 269 1
v 270 0
v 271 1
v 272 2
v 273 0
v 274 1
v 275 0
v 276 1
v 277 0
v 278 1
v 279 0
v 280 1
v 281 1
v 282 0
v 283 2
v 284 1
v 285 0
v 286 1
v 287 0
v 288 1
v 289 0
v 290 1
v 291 0
v 292 1
v 293 2
v 294 0
v 295 1
v 296 0
v 297 1
v 298 0
v 299 1
v 300 0
v 301 0
v 302 1
v 303 3
v 304 0
v 305 1
v 306 0
v 307 1
v 308 0
v 309 1
v 310 0
v 311 1
v 312 2
v 313 0
v 314 1
v 315 0
v 316 1
v 317 0
v 318 1
v 319 0
v 320 1
v 321 1
v 322 0
v 323 1
v 324 2
v 325 0
v 326 1
v 327 0
v 328 1
v 329 0
v 330 1
v 331 2
v 332 0
v 333 1
v 334 0
v 335 1
v 336 0
v 337 1
v 338 0
v 339 1
v 340 0
v 341 0
v 342 1
v 343 2
v 344 0
v 345 1
v 346 0
v 347 1
v 348 0
v 349 1
v 350 0
v 351 1
v 352 2
v 353 0
v 354 1
v 355 0
v 356 1
v 357 0
v 358 1
v 359 0
v 360 1
